p cnf 456 456
1 2 0
-1 -2 0
3 4 0
-3 -4 0
5 6 0
-5 -6 0
7 8 0
-7 -8 0
9 10 0
-9 -10 0
11 12 0
-11 -12 0
13 14 0
-13 -14 0
15 16 0
-15 -16 0
17 18 0
-17 -18 0
19 20 0
-19 -20 0
21 22 0
-21 -22 0
23 24 0
-23 -24 0
25 26 0
-25 -26 0
27 28 0
-27 -28 0
29 30 0
-29 -30 0
31 32 0
-31 -32 0
33 34 0
-33 -34 0
35 36 0
-35 -36 0
37 38 0
-37 -38 0
39 40 0
-39 -40 0
41 42 0
-41 -42 0
43 44 0
-43 -44 0
45 46 0
-45 -46 0
47 48 0
-47 -48 0
49 50 0
-49 -50 0
51 52 0
-51 -52 0
53 54 0
-53 -54 0
55 56 0
-55 -56 0
57 58 0
-57 -58 0
59 60 0
-59 -60 0
61 62 0
-61 -62 0
63 64 0
-63 -64 0
65 66 0
-65 -66 0
67 68 0
-67 -68 0
69 70 0
-69 -70 0
71 72 0
-71 -72 0
73 74 0
-73 -74 0
75 76 0
-75 -76 0
77 78 0
-77 -78 0
79 80 0
-79 -80 0
81 82 0
-81 -82 0
83 84 0
-83 -84 0
85 86 0
-85 -86 0
87 88 0
-87 -88 0
89 90 0
-89 -90 0
91 92 0
-91 -92 0
93 94 0
-93 -94 0
95 96 0
-95 -96 0
97 98 0
-97 -98 0
99 100 0
-99 -100 0
101 102 0
-101 -102 0
103 104 0
-103 -104 0
105 106 0
-105 -106 0
107 108 0
-107 -108 0
109 110 0
-109 -110 0
111 112 0
-111 -112 0
113 114 0
-113 -114 0
115 116 0
-115 -116 0
117 118 0
-117 -118 0
119 120 0
-119 -120 0
121 122 0
-121 -122 0
123 124 0
-123 -124 0
125 126 0
-125 -126 0
127 128 0
-127 -128 0
129 130 0
-129 -130 0
131 132 0
-131 -132 0
133 134 0
-133 -134 0
135 136 0
-135 -136 0
137 138 0
-137 -138 0
139 140 0
-139 -140 0
141 142 0
-141 -142 0
143 144 0
-143 -144 0
145 146 0
-145 -146 0
147 148 0
-147 -148 0
149 150 0
-149 -150 0
151 152 0
-151 -152 0
153 154 0
-153 -154 0
155 156 0
-155 -156 0
157 158 0
-157 -158 0
159 160 0
-159 -160 0
161 162 0
-161 -162 0
163 164 0
-163 -164 0
165 166 0
-165 -166 0
167 168 0
-167 -168 0
169 170 0
-169 -170 0
171 172 0
-171 -172 0
173 174 0
-173 -174 0
175 176 0
-175 -176 0
177 178 0
-177 -178 0
179 180 0
-179 -180 0
181 182 0
-181 -182 0
183 184 0
-183 -184 0
185 186 0
-185 -186 0
187 188 0
-187 -188 0
189 190 0
-189 -190 0
191 192 0
-191 -192 0
193 194 0
-193 -194 0
195 196 0
-195 -196 0
197 198 0
-197 -198 0
199 200 0
-199 -200 0
201 202 0
-201 -202 0
203 204 0
-203 -204 0
205 206 0
-205 -206 0
207 208 0
-207 -208 0
209 210 0
-209 -210 0
211 212 0
-211 -212 0
213 214 0
-213 -214 0
215 216 0
-215 -216 0
217 218 0
-217 -218 0
219 220 0
-219 -220 0
221 222 0
-221 -222 0
223 224 0
-223 -224 0
225 226 0
-225 -226 0
227 228 0
-227 -228 0
229 230 0
-229 -230 0
231 232 0
-231 -232 0
233 234 0
-233 -234 0
235 236 0
-235 -236 0
237 238 0
-237 -238 0
239 240 0
-239 -240 0
241 242 0
-241 -242 0
243 244 0
-243 -244 0
245 246 0
-245 -246 0
247 248 0
-247 -248 0
249 250 0
-249 -250 0
251 252 0
-251 -252 0
253 254 0
-253 -254 0
255 256 0
-255 -256 0
257 258 0
-257 -258 0
259 260 0
-259 -260 0
261 262 0
-261 -262 0
263 264 0
-263 -264 0
265 266 0
-265 -266 0
267 268 0
-267 -268 0
269 270 0
-269 -270 0
271 272 0
-271 -272 0
273 274 0
-273 -274 0
275 276 0
-275 -276 0
277 278 0
-277 -278 0
279 280 0
-279 -280 0
281 282 0
-281 -282 0
283 284 0
-283 -284 0
285 286 0
-285 -286 0
287 288 0
-287 -288 0
289 290 0
-289 -290 0
291 292 0
-291 -292 0
293 294 0
-293 -294 0
295 296 0
-295 -296 0
297 298 0
-297 -298 0
299 300 0
-299 -300 0
301 302 0
-301 -302 0
303 304 0
-303 -304 0
305 306 0
-305 -306 0
307 308 0
-307 -308 0
309 310 0
-309 -310 0
311 312 0
-311 -312 0
313 314 0
-313 -314 0
315 316 0
-315 -316 0
317 318 0
-317 -318 0
319 320 0
-319 -320 0
321 322 0
-321 -322 0
323 324 0
-323 -324 0
325 326 0
-325 -326 0
327 328 0
-327 -328 0
329 330 0
-329 -330 0
331 332 0
-331 -332 0
333 334 0
-333 -334 0
335 336 0
-335 -336 0
337 338 0
-337 -338 0
339 340 0
-339 -340 0
341 342 0
-341 -342 0
343 344 0
-343 -344 0
345 346 0
-345 -346 0
347 348 0
-347 -348 0
349 350 0
-349 -350 0
351 352 0
-351 -352 0
353 354 0
-353 -354 0
355 356 0
-355 -356 0
357 358 0
-357 -358 0
359 360 0
-359 -360 0
361 362 0
-361 -362 0
363 364 0
-363 -364 0
365 366 0
-365 -366 0
367 368 0
-367 -368 0
369 370 0
-369 -370 0
371 372 0
-371 -372 0
373 374 0
-373 -374 0
375 376 0
-375 -376 0
377 378 0
-377 -378 0
379 380 0
-379 -380 0
381 382 0
-381 -382 0
383 384 0
-383 -384 0
385 386 0
-385 -386 0
387 388 0
-387 -388 0
389 390 0
-389 -390 0
391 392 0
-391 -392 0
393 394 0
-393 -394 0
395 396 0
-395 -396 0
397 398 0
-397 -398 0
399 400 0
-399 -400 0
401 402 0
-401 -402 0
403 404 0
-403 -404 0
405 406 0
-405 -406 0
407 408 0
-407 -408 0
409 410 0
-409 -410 0
411 412 0
-411 -412 0
413 414 0
-413 -414 0
415 416 0
-415 -416 0
417 418 0
-417 -418 0
419 420 0
-419 -420 0
421 422 0
-421 -422 0
423 424 0
-423 -424 0
425 426 0
-425 -426 0
427 428 0
-427 -428 0
429 430 0
-429 -430 0
431 432 0
-431 -432 0
433 434 0
-433 -434 0
435 436 0
-435 -436 0
437 438 0
-437 -438 0
439 440 0
-439 -440 0
441 442 0
-441 -442 0
443 444 0
-443 -444 0
445 446 0
-445 -446 0
447 448 0
-447 -448 0
449 450 0
-449 -450 0
451 452 0
-451 -452 0
453 454 0
-453 -454 0
455 456 0
-455 -456 0
